Route 1: 65 82 69 88 90 66 56 91 93 80
Route 2: 98 12 78 53 55 68 70 100
Route 3: 92 95 62 67 71 94 96 54
Route 4: 39 42 44 61 81 43
Route 5: 83 52 99 57 86 74 24
Route 6: 5 45 2 7 6 8 46 4 60
Route 7: 64 76 51 84 48 25
Route 8: 72 36 38 40 41 35 37
Route 9: 14 47 11 15 16 9 10 13 17
Route 10: 63 19 18 49 22 20 77
Route 11: 27 29 31 30 34 50
Route 12: 73 79 3 1
Route 13: 23 21 85 89
Route 14: 59 75 87 97 58
Route 15: 33 28 26 32
Vehicles: 15
Distance: 1906.50
